SCIP version 5.0.0 [precision: 8 byte] [memory: block] [mode: optimized] [LP solver: NONE] [GitHash: 3bbd232]
Copyright (C) 2002-2017 Konrad-Zuse-Zentrum fuer Informationstechnik Berlin (ZIB)

External codes: 
  Readline EditLine w  GNU library for command line editing (gnu.org/s/readline)
  CppAD 20160000.1     Algorithmic Differentiation of C++ algorithms developed by B. Bell (www.coin-or.org/CppAD)
  ZLIB 1.2.5           General purpose compression library by J. Gailly and M. Adler (zlib.net)
  GMP 6.1.2            GNU Multiple Precision Arithmetic Library developed by T. Granlund (gmplib.org)

user parameter file <scip.set> not found - using default parameters

read problem <../../Split_data/output/parkin/4/4_sample_parkin.logreg>
============

File name	:	../../Split_data/output/parkin/4/4_sample_parkin.logreg
Problem name 	:	4_sample_parkin
Number of data	:	156
Number of var	:	22
The given data has linear independence

[dim=1] time: 0.002925
[dim=2] time: 0.007675
[dim=3] time: 0.012149
[dim=4] time: 0.014489
[dim=5] time: 0.016374
[dim=6] time: 0.018358
[dim=7] time: 0.020158
[dim=8] time: 0.021839
[dim=9] time: 0.023311
[dim=10] time: 0.025109
[dim=11] time: 0.026855
[dim=12] time: 0.028756
[dim=13] time: 0.03096
[dim=14] Time of forward = 0.03217sec.
AIC: 78.4698
k: 13

[dim=22] time: 0.076794
[dim=21] time: 0.151585
[dim=20] time: 0.226844
[dim=19] time: 0.247797
[dim=18] time: 0.259634
[dim=17] time: 0.292581
[dim=16] time: 0.307716
[dim=15] time: 0.313997
[dim=14] time: 0.321413
[dim=13] time: 0.324825
[dim=12] time: 0.326845
[dim=11] Time of backward = 0.328923sec.
AIC: 76.4688
k: 12
